p cnf 33 35
-18 23 0 
-27 6 0 
-25 1 19 0 
-18 28 0 
-6 26 0 
13 15 0 
-33 9 0 
-30 3 0 
17 19 0 
-19 25 0 
-9 33 0 
-10 32 0 
14 16 0 
-6 22 0 
-11 21 0 
-12 24 0 
-29 4 0 
-28 1 18 0 
-1 25 0 
-4 29 0 
-31 5 0 
-5 31 0 
-3 30 0 
-8 24 0 
-21 11 0 
-23 18 20 0 
-26 2 6 0 
-6 27 0 
-2 26 0 
-24 8 12 0 
-22 6 7 0 
-1 28 0 
-32 10 0 
-20 23 0 
-7 22 0 
